RAW/D/fspd/SCA8-2.vrpspd_seed-6.out
1039.6336	9.515	24.774
