RAW/D/fspd/SCA8-2.vrpspd_seed-6.sol
Route #1: 23 11 42 40 3 17
Route #2: 48 5 30 8 14
Route #3: 35 1 37 16 41 26 46
Route #4: 43 27 19 31 45
Route #5: 18 21 34 7 15 49
Route #6: 24 38 36 47 33
Route #7: 50 44 29 22 28 2
Route #8: 25 10 12 32 9
Route #9: 39 4 6 13 20
Cost 10396336.000000